NAME : ch150.best.tour
TYPE : TOUR
DIMENSION : 150
TOUR_SECTION
1
87
76
73
48
63
34
30
84
7
8
89
96
35
93
52
16
59
79
121
88
94
10
113
3
62
149
22
125
21
150
104
4
115
44
71
45
128
68
119
91
106
13
64
112
136
74
123
31
27
129
144
49
147
145
72
14
80
78
15
133
122
77
131
23
38
32
67
109
51
43
116
101
41
39
57
117
140
60
66
17
130
148
11
61
36
69
127
118
24
12
53
40
139
120
47
20
25
83
141
58
55
50
135
86
29
81
110
2
37
42
9
28
6
19
99
114
102
108
70
137
132
65
85
142
18
75
26
146
56
90
46
92
54
138
134
105
111
33
126
124
97
143
100
5
107
95
82
103
98
EOF